100 20 100
2 50 23 24 48 77 54 74 64 90 7 34 80 39 2 69 33 63 47 83 71 81 33 84 59 36 74 27 72 92 82 74 15 6 26 15 83 32 89 99 23 49 33 55 88 88 25 21 51 72 4 75 5 89 11 64 78 37 44 50 29 26 76 96 84 54 11 67 87 53 18 62 2 52 17 42 40 94 63 91 18 20 18 24 61 29 40 39 67 84 41 96 10 17 93 94 72 56 13 11 
